(set-logic QF_LRA)
(declare-fun X0 () Real )
(declare-fun Y0 () Real )
(declare-fun X1 () Real )
(declare-fun Y1 () Real )
(declare-fun X2 () Real )
(declare-fun Y2 () Real )
(declare-fun X3 () Real )
(declare-fun Y3 () Real )
(declare-fun X4 () Real )
(declare-fun Y4 () Real )
(declare-fun X5 () Real )
(declare-fun Y5 () Real )
(declare-fun X6 () Real )
(declare-fun Y6 () Real )
(declare-fun X7 () Real )
(declare-fun Y7 () Real )
(declare-fun X8 () Real )
(declare-fun Y8 () Real )
(declare-fun X9 () Real )
(declare-fun Y9 () Real )
(declare-fun X10 () Real )
(declare-fun Y10 () Real )
(declare-fun X11 () Real )
(declare-fun Y11 () Real )
(declare-fun X12 () Real )
(declare-fun Y12 () Real )
(declare-fun X13 () Real )
(declare-fun Y13 () Real )
(declare-fun X14 () Real )
(declare-fun Y14 () Real )
(declare-fun X15 () Real )
(declare-fun Y15 () Real )
(declare-fun X16 () Real )
(declare-fun Y16 () Real )
(declare-fun X17 () Real )
(declare-fun Y17 () Real )
(declare-fun Z () Real )
(declare-fun k () Real )
(assert (let
(( $goal (>= Z k) ))
(let
((
$phi ( and 
( or ( <= ( + X0 51 ) X1 )  ( <= ( + X1 25 ) X0 )  ( <= ( + Y0 55 ) Y1 )  ( <= ( + Y1 43 ) Y0 )  )
( or ( <= ( + X0 51 ) X2 )  ( <= ( + X2 52 ) X0 )  ( <= ( + Y0 55 ) Y2 )  ( <= ( + Y2 15 ) Y0 )  )
( or ( <= ( + X0 51 ) X3 )  ( <= ( + X3 76 ) X0 )  ( <= ( + Y0 55 ) Y3 )  ( <= ( + Y3 96 ) Y0 )  )
( or ( <= ( + X0 51 ) X4 )  ( <= ( + X4 29 ) X0 )  ( <= ( + Y0 55 ) Y4 )  ( <= ( + Y4 75 ) Y0 )  )
( or ( <= ( + X0 51 ) X5 )  ( <= ( + X5 87 ) X0 )  ( <= ( + Y0 55 ) Y5 )  ( <= ( + Y5 50 ) Y0 )  )
( or ( <= ( + X0 51 ) X6 )  ( <= ( + X6 4 ) X0 )  ( <= ( + Y0 55 ) Y6 )  ( <= ( + Y6 64 ) Y0 )  )
( or ( <= ( + X0 51 ) X7 )  ( <= ( + X7 94 ) X0 )  ( <= ( + Y0 55 ) Y7 )  ( <= ( + Y7 70 ) Y0 )  )
( or ( <= ( + X0 51 ) X8 )  ( <= ( + X8 80 ) X0 )  ( <= ( + Y0 55 ) Y8 )  ( <= ( + Y8 93 ) Y0 )  )
( or ( <= ( + X0 51 ) X9 )  ( <= ( + X9 87 ) X0 )  ( <= ( + Y0 55 ) Y9 )  ( <= ( + Y9 67 ) Y0 )  )
( or ( <= ( + X0 51 ) X10 )  ( <= ( + X10 26 ) X0 )  ( <= ( + Y0 55 ) Y10 )  ( <= ( + Y10 21 ) Y0 )  )
( or ( <= ( + X0 51 ) X11 )  ( <= ( + X11 15 ) X0 )  ( <= ( + Y0 55 ) Y11 )  ( <= ( + Y11 13 ) Y0 )  )
( or ( <= ( + X0 51 ) X12 )  ( <= ( + X12 33 ) X0 )  ( <= ( + Y0 55 ) Y12 )  ( <= ( + Y12 46 ) Y0 )  )
( or ( <= ( + X0 51 ) X13 )  ( <= ( + X13 29 ) X0 )  ( <= ( + Y0 55 ) Y13 )  ( <= ( + Y13 71 ) Y0 )  )
( or ( <= ( + X0 51 ) X14 )  ( <= ( + X14 18 ) X0 )  ( <= ( + Y0 55 ) Y14 )  ( <= ( + Y14 37 ) Y0 )  )
( or ( <= ( + X0 51 ) X15 )  ( <= ( + X15 59 ) X0 )  ( <= ( + Y0 55 ) Y15 )  ( <= ( + Y15 49 ) Y0 )  )
( or ( <= ( + X0 51 ) X16 )  ( <= ( + X16 30 ) X0 )  ( <= ( + Y0 55 ) Y16 )  ( <= ( + Y16 47 ) Y0 )  )
( or ( <= ( + X0 51 ) X17 )  ( <= ( + X17 15 ) X0 )  ( <= ( + Y0 55 ) Y17 )  ( <= ( + Y17 65 ) Y0 )  )
( or ( <= ( + X1 25 ) X2 )  ( <= ( + X2 52 ) X1 )  ( <= ( + Y1 43 ) Y2 )  ( <= ( + Y2 15 ) Y1 )  )
( or ( <= ( + X1 25 ) X3 )  ( <= ( + X3 76 ) X1 )  ( <= ( + Y1 43 ) Y3 )  ( <= ( + Y3 96 ) Y1 )  )
( or ( <= ( + X1 25 ) X4 )  ( <= ( + X4 29 ) X1 )  ( <= ( + Y1 43 ) Y4 )  ( <= ( + Y4 75 ) Y1 )  )
( or ( <= ( + X1 25 ) X5 )  ( <= ( + X5 87 ) X1 )  ( <= ( + Y1 43 ) Y5 )  ( <= ( + Y5 50 ) Y1 )  )
( or ( <= ( + X1 25 ) X6 )  ( <= ( + X6 4 ) X1 )  ( <= ( + Y1 43 ) Y6 )  ( <= ( + Y6 64 ) Y1 )  )
( or ( <= ( + X1 25 ) X7 )  ( <= ( + X7 94 ) X1 )  ( <= ( + Y1 43 ) Y7 )  ( <= ( + Y7 70 ) Y1 )  )
( or ( <= ( + X1 25 ) X8 )  ( <= ( + X8 80 ) X1 )  ( <= ( + Y1 43 ) Y8 )  ( <= ( + Y8 93 ) Y1 )  )
( or ( <= ( + X1 25 ) X9 )  ( <= ( + X9 87 ) X1 )  ( <= ( + Y1 43 ) Y9 )  ( <= ( + Y9 67 ) Y1 )  )
( or ( <= ( + X1 25 ) X10 )  ( <= ( + X10 26 ) X1 )  ( <= ( + Y1 43 ) Y10 )  ( <= ( + Y10 21 ) Y1 )  )
( or ( <= ( + X1 25 ) X11 )  ( <= ( + X11 15 ) X1 )  ( <= ( + Y1 43 ) Y11 )  ( <= ( + Y11 13 ) Y1 )  )
( or ( <= ( + X1 25 ) X12 )  ( <= ( + X12 33 ) X1 )  ( <= ( + Y1 43 ) Y12 )  ( <= ( + Y12 46 ) Y1 )  )
( or ( <= ( + X1 25 ) X13 )  ( <= ( + X13 29 ) X1 )  ( <= ( + Y1 43 ) Y13 )  ( <= ( + Y13 71 ) Y1 )  )
( or ( <= ( + X1 25 ) X14 )  ( <= ( + X14 18 ) X1 )  ( <= ( + Y1 43 ) Y14 )  ( <= ( + Y14 37 ) Y1 )  )
( or ( <= ( + X1 25 ) X15 )  ( <= ( + X15 59 ) X1 )  ( <= ( + Y1 43 ) Y15 )  ( <= ( + Y15 49 ) Y1 )  )
( or ( <= ( + X1 25 ) X16 )  ( <= ( + X16 30 ) X1 )  ( <= ( + Y1 43 ) Y16 )  ( <= ( + Y16 47 ) Y1 )  )
( or ( <= ( + X1 25 ) X17 )  ( <= ( + X17 15 ) X1 )  ( <= ( + Y1 43 ) Y17 )  ( <= ( + Y17 65 ) Y1 )  )
( or ( <= ( + X2 52 ) X3 )  ( <= ( + X3 76 ) X2 )  ( <= ( + Y2 15 ) Y3 )  ( <= ( + Y3 96 ) Y2 )  )
( or ( <= ( + X2 52 ) X4 )  ( <= ( + X4 29 ) X2 )  ( <= ( + Y2 15 ) Y4 )  ( <= ( + Y4 75 ) Y2 )  )
( or ( <= ( + X2 52 ) X5 )  ( <= ( + X5 87 ) X2 )  ( <= ( + Y2 15 ) Y5 )  ( <= ( + Y5 50 ) Y2 )  )
( or ( <= ( + X2 52 ) X6 )  ( <= ( + X6 4 ) X2 )  ( <= ( + Y2 15 ) Y6 )  ( <= ( + Y6 64 ) Y2 )  )
( or ( <= ( + X2 52 ) X7 )  ( <= ( + X7 94 ) X2 )  ( <= ( + Y2 15 ) Y7 )  ( <= ( + Y7 70 ) Y2 )  )
( or ( <= ( + X2 52 ) X8 )  ( <= ( + X8 80 ) X2 )  ( <= ( + Y2 15 ) Y8 )  ( <= ( + Y8 93 ) Y2 )  )
( or ( <= ( + X2 52 ) X9 )  ( <= ( + X9 87 ) X2 )  ( <= ( + Y2 15 ) Y9 )  ( <= ( + Y9 67 ) Y2 )  )
( or ( <= ( + X2 52 ) X10 )  ( <= ( + X10 26 ) X2 )  ( <= ( + Y2 15 ) Y10 )  ( <= ( + Y10 21 ) Y2 )  )
( or ( <= ( + X2 52 ) X11 )  ( <= ( + X11 15 ) X2 )  ( <= ( + Y2 15 ) Y11 )  ( <= ( + Y11 13 ) Y2 )  )
( or ( <= ( + X2 52 ) X12 )  ( <= ( + X12 33 ) X2 )  ( <= ( + Y2 15 ) Y12 )  ( <= ( + Y12 46 ) Y2 )  )
( or ( <= ( + X2 52 ) X13 )  ( <= ( + X13 29 ) X2 )  ( <= ( + Y2 15 ) Y13 )  ( <= ( + Y13 71 ) Y2 )  )
( or ( <= ( + X2 52 ) X14 )  ( <= ( + X14 18 ) X2 )  ( <= ( + Y2 15 ) Y14 )  ( <= ( + Y14 37 ) Y2 )  )
( or ( <= ( + X2 52 ) X15 )  ( <= ( + X15 59 ) X2 )  ( <= ( + Y2 15 ) Y15 )  ( <= ( + Y15 49 ) Y2 )  )
( or ( <= ( + X2 52 ) X16 )  ( <= ( + X16 30 ) X2 )  ( <= ( + Y2 15 ) Y16 )  ( <= ( + Y16 47 ) Y2 )  )
( or ( <= ( + X2 52 ) X17 )  ( <= ( + X17 15 ) X2 )  ( <= ( + Y2 15 ) Y17 )  ( <= ( + Y17 65 ) Y2 )  )
( or ( <= ( + X3 76 ) X4 )  ( <= ( + X4 29 ) X3 )  ( <= ( + Y3 96 ) Y4 )  ( <= ( + Y4 75 ) Y3 )  )
( or ( <= ( + X3 76 ) X5 )  ( <= ( + X5 87 ) X3 )  ( <= ( + Y3 96 ) Y5 )  ( <= ( + Y5 50 ) Y3 )  )
( or ( <= ( + X3 76 ) X6 )  ( <= ( + X6 4 ) X3 )  ( <= ( + Y3 96 ) Y6 )  ( <= ( + Y6 64 ) Y3 )  )
( or ( <= ( + X3 76 ) X7 )  ( <= ( + X7 94 ) X3 )  ( <= ( + Y3 96 ) Y7 )  ( <= ( + Y7 70 ) Y3 )  )
( or ( <= ( + X3 76 ) X8 )  ( <= ( + X8 80 ) X3 )  ( <= ( + Y3 96 ) Y8 )  ( <= ( + Y8 93 ) Y3 )  )
( or ( <= ( + X3 76 ) X9 )  ( <= ( + X9 87 ) X3 )  ( <= ( + Y3 96 ) Y9 )  ( <= ( + Y9 67 ) Y3 )  )
( or ( <= ( + X3 76 ) X10 )  ( <= ( + X10 26 ) X3 )  ( <= ( + Y3 96 ) Y10 )  ( <= ( + Y10 21 ) Y3 )  )
( or ( <= ( + X3 76 ) X11 )  ( <= ( + X11 15 ) X3 )  ( <= ( + Y3 96 ) Y11 )  ( <= ( + Y11 13 ) Y3 )  )
( or ( <= ( + X3 76 ) X12 )  ( <= ( + X12 33 ) X3 )  ( <= ( + Y3 96 ) Y12 )  ( <= ( + Y12 46 ) Y3 )  )
( or ( <= ( + X3 76 ) X13 )  ( <= ( + X13 29 ) X3 )  ( <= ( + Y3 96 ) Y13 )  ( <= ( + Y13 71 ) Y3 )  )
( or ( <= ( + X3 76 ) X14 )  ( <= ( + X14 18 ) X3 )  ( <= ( + Y3 96 ) Y14 )  ( <= ( + Y14 37 ) Y3 )  )
( or ( <= ( + X3 76 ) X15 )  ( <= ( + X15 59 ) X3 )  ( <= ( + Y3 96 ) Y15 )  ( <= ( + Y15 49 ) Y3 )  )
( or ( <= ( + X3 76 ) X16 )  ( <= ( + X16 30 ) X3 )  ( <= ( + Y3 96 ) Y16 )  ( <= ( + Y16 47 ) Y3 )  )
( or ( <= ( + X3 76 ) X17 )  ( <= ( + X17 15 ) X3 )  ( <= ( + Y3 96 ) Y17 )  ( <= ( + Y17 65 ) Y3 )  )
( or ( <= ( + X4 29 ) X5 )  ( <= ( + X5 87 ) X4 )  ( <= ( + Y4 75 ) Y5 )  ( <= ( + Y5 50 ) Y4 )  )
( or ( <= ( + X4 29 ) X6 )  ( <= ( + X6 4 ) X4 )  ( <= ( + Y4 75 ) Y6 )  ( <= ( + Y6 64 ) Y4 )  )
( or ( <= ( + X4 29 ) X7 )  ( <= ( + X7 94 ) X4 )  ( <= ( + Y4 75 ) Y7 )  ( <= ( + Y7 70 ) Y4 )  )
( or ( <= ( + X4 29 ) X8 )  ( <= ( + X8 80 ) X4 )  ( <= ( + Y4 75 ) Y8 )  ( <= ( + Y8 93 ) Y4 )  )
( or ( <= ( + X4 29 ) X9 )  ( <= ( + X9 87 ) X4 )  ( <= ( + Y4 75 ) Y9 )  ( <= ( + Y9 67 ) Y4 )  )
( or ( <= ( + X4 29 ) X10 )  ( <= ( + X10 26 ) X4 )  ( <= ( + Y4 75 ) Y10 )  ( <= ( + Y10 21 ) Y4 )  )
( or ( <= ( + X4 29 ) X11 )  ( <= ( + X11 15 ) X4 )  ( <= ( + Y4 75 ) Y11 )  ( <= ( + Y11 13 ) Y4 )  )
( or ( <= ( + X4 29 ) X12 )  ( <= ( + X12 33 ) X4 )  ( <= ( + Y4 75 ) Y12 )  ( <= ( + Y12 46 ) Y4 )  )
( or ( <= ( + X4 29 ) X13 )  ( <= ( + X13 29 ) X4 )  ( <= ( + Y4 75 ) Y13 )  ( <= ( + Y13 71 ) Y4 )  )
( or ( <= ( + X4 29 ) X14 )  ( <= ( + X14 18 ) X4 )  ( <= ( + Y4 75 ) Y14 )  ( <= ( + Y14 37 ) Y4 )  )
( or ( <= ( + X4 29 ) X15 )  ( <= ( + X15 59 ) X4 )  ( <= ( + Y4 75 ) Y15 )  ( <= ( + Y15 49 ) Y4 )  )
( or ( <= ( + X4 29 ) X16 )  ( <= ( + X16 30 ) X4 )  ( <= ( + Y4 75 ) Y16 )  ( <= ( + Y16 47 ) Y4 )  )
( or ( <= ( + X4 29 ) X17 )  ( <= ( + X17 15 ) X4 )  ( <= ( + Y4 75 ) Y17 )  ( <= ( + Y17 65 ) Y4 )  )
( or ( <= ( + X5 87 ) X6 )  ( <= ( + X6 4 ) X5 )  ( <= ( + Y5 50 ) Y6 )  ( <= ( + Y6 64 ) Y5 )  )
( or ( <= ( + X5 87 ) X7 )  ( <= ( + X7 94 ) X5 )  ( <= ( + Y5 50 ) Y7 )  ( <= ( + Y7 70 ) Y5 )  )
( or ( <= ( + X5 87 ) X8 )  ( <= ( + X8 80 ) X5 )  ( <= ( + Y5 50 ) Y8 )  ( <= ( + Y8 93 ) Y5 )  )
( or ( <= ( + X5 87 ) X9 )  ( <= ( + X9 87 ) X5 )  ( <= ( + Y5 50 ) Y9 )  ( <= ( + Y9 67 ) Y5 )  )
( or ( <= ( + X5 87 ) X10 )  ( <= ( + X10 26 ) X5 )  ( <= ( + Y5 50 ) Y10 )  ( <= ( + Y10 21 ) Y5 )  )
( or ( <= ( + X5 87 ) X11 )  ( <= ( + X11 15 ) X5 )  ( <= ( + Y5 50 ) Y11 )  ( <= ( + Y11 13 ) Y5 )  )
( or ( <= ( + X5 87 ) X12 )  ( <= ( + X12 33 ) X5 )  ( <= ( + Y5 50 ) Y12 )  ( <= ( + Y12 46 ) Y5 )  )
( or ( <= ( + X5 87 ) X13 )  ( <= ( + X13 29 ) X5 )  ( <= ( + Y5 50 ) Y13 )  ( <= ( + Y13 71 ) Y5 )  )
( or ( <= ( + X5 87 ) X14 )  ( <= ( + X14 18 ) X5 )  ( <= ( + Y5 50 ) Y14 )  ( <= ( + Y14 37 ) Y5 )  )
( or ( <= ( + X5 87 ) X15 )  ( <= ( + X15 59 ) X5 )  ( <= ( + Y5 50 ) Y15 )  ( <= ( + Y15 49 ) Y5 )  )
( or ( <= ( + X5 87 ) X16 )  ( <= ( + X16 30 ) X5 )  ( <= ( + Y5 50 ) Y16 )  ( <= ( + Y16 47 ) Y5 )  )
( or ( <= ( + X5 87 ) X17 )  ( <= ( + X17 15 ) X5 )  ( <= ( + Y5 50 ) Y17 )  ( <= ( + Y17 65 ) Y5 )  )
( or ( <= ( + X6 4 ) X7 )  ( <= ( + X7 94 ) X6 )  ( <= ( + Y6 64 ) Y7 )  ( <= ( + Y7 70 ) Y6 )  )
( or ( <= ( + X6 4 ) X8 )  ( <= ( + X8 80 ) X6 )  ( <= ( + Y6 64 ) Y8 )  ( <= ( + Y8 93 ) Y6 )  )
( or ( <= ( + X6 4 ) X9 )  ( <= ( + X9 87 ) X6 )  ( <= ( + Y6 64 ) Y9 )  ( <= ( + Y9 67 ) Y6 )  )
( or ( <= ( + X6 4 ) X10 )  ( <= ( + X10 26 ) X6 )  ( <= ( + Y6 64 ) Y10 )  ( <= ( + Y10 21 ) Y6 )  )
( or ( <= ( + X6 4 ) X11 )  ( <= ( + X11 15 ) X6 )  ( <= ( + Y6 64 ) Y11 )  ( <= ( + Y11 13 ) Y6 )  )
( or ( <= ( + X6 4 ) X12 )  ( <= ( + X12 33 ) X6 )  ( <= ( + Y6 64 ) Y12 )  ( <= ( + Y12 46 ) Y6 )  )
( or ( <= ( + X6 4 ) X13 )  ( <= ( + X13 29 ) X6 )  ( <= ( + Y6 64 ) Y13 )  ( <= ( + Y13 71 ) Y6 )  )
( or ( <= ( + X6 4 ) X14 )  ( <= ( + X14 18 ) X6 )  ( <= ( + Y6 64 ) Y14 )  ( <= ( + Y14 37 ) Y6 )  )
( or ( <= ( + X6 4 ) X15 )  ( <= ( + X15 59 ) X6 )  ( <= ( + Y6 64 ) Y15 )  ( <= ( + Y15 49 ) Y6 )  )
( or ( <= ( + X6 4 ) X16 )  ( <= ( + X16 30 ) X6 )  ( <= ( + Y6 64 ) Y16 )  ( <= ( + Y16 47 ) Y6 )  )
( or ( <= ( + X6 4 ) X17 )  ( <= ( + X17 15 ) X6 )  ( <= ( + Y6 64 ) Y17 )  ( <= ( + Y17 65 ) Y6 )  )
( or ( <= ( + X7 94 ) X8 )  ( <= ( + X8 80 ) X7 )  ( <= ( + Y7 70 ) Y8 )  ( <= ( + Y8 93 ) Y7 )  )
( or ( <= ( + X7 94 ) X9 )  ( <= ( + X9 87 ) X7 )  ( <= ( + Y7 70 ) Y9 )  ( <= ( + Y9 67 ) Y7 )  )
( or ( <= ( + X7 94 ) X10 )  ( <= ( + X10 26 ) X7 )  ( <= ( + Y7 70 ) Y10 )  ( <= ( + Y10 21 ) Y7 )  )
( or ( <= ( + X7 94 ) X11 )  ( <= ( + X11 15 ) X7 )  ( <= ( + Y7 70 ) Y11 )  ( <= ( + Y11 13 ) Y7 )  )
( or ( <= ( + X7 94 ) X12 )  ( <= ( + X12 33 ) X7 )  ( <= ( + Y7 70 ) Y12 )  ( <= ( + Y12 46 ) Y7 )  )
( or ( <= ( + X7 94 ) X13 )  ( <= ( + X13 29 ) X7 )  ( <= ( + Y7 70 ) Y13 )  ( <= ( + Y13 71 ) Y7 )  )
( or ( <= ( + X7 94 ) X14 )  ( <= ( + X14 18 ) X7 )  ( <= ( + Y7 70 ) Y14 )  ( <= ( + Y14 37 ) Y7 )  )
( or ( <= ( + X7 94 ) X15 )  ( <= ( + X15 59 ) X7 )  ( <= ( + Y7 70 ) Y15 )  ( <= ( + Y15 49 ) Y7 )  )
( or ( <= ( + X7 94 ) X16 )  ( <= ( + X16 30 ) X7 )  ( <= ( + Y7 70 ) Y16 )  ( <= ( + Y16 47 ) Y7 )  )
( or ( <= ( + X7 94 ) X17 )  ( <= ( + X17 15 ) X7 )  ( <= ( + Y7 70 ) Y17 )  ( <= ( + Y17 65 ) Y7 )  )
( or ( <= ( + X8 80 ) X9 )  ( <= ( + X9 87 ) X8 )  ( <= ( + Y8 93 ) Y9 )  ( <= ( + Y9 67 ) Y8 )  )
( or ( <= ( + X8 80 ) X10 )  ( <= ( + X10 26 ) X8 )  ( <= ( + Y8 93 ) Y10 )  ( <= ( + Y10 21 ) Y8 )  )
( or ( <= ( + X8 80 ) X11 )  ( <= ( + X11 15 ) X8 )  ( <= ( + Y8 93 ) Y11 )  ( <= ( + Y11 13 ) Y8 )  )
( or ( <= ( + X8 80 ) X12 )  ( <= ( + X12 33 ) X8 )  ( <= ( + Y8 93 ) Y12 )  ( <= ( + Y12 46 ) Y8 )  )
( or ( <= ( + X8 80 ) X13 )  ( <= ( + X13 29 ) X8 )  ( <= ( + Y8 93 ) Y13 )  ( <= ( + Y13 71 ) Y8 )  )
( or ( <= ( + X8 80 ) X14 )  ( <= ( + X14 18 ) X8 )  ( <= ( + Y8 93 ) Y14 )  ( <= ( + Y14 37 ) Y8 )  )
( or ( <= ( + X8 80 ) X15 )  ( <= ( + X15 59 ) X8 )  ( <= ( + Y8 93 ) Y15 )  ( <= ( + Y15 49 ) Y8 )  )
( or ( <= ( + X8 80 ) X16 )  ( <= ( + X16 30 ) X8 )  ( <= ( + Y8 93 ) Y16 )  ( <= ( + Y16 47 ) Y8 )  )
( or ( <= ( + X8 80 ) X17 )  ( <= ( + X17 15 ) X8 )  ( <= ( + Y8 93 ) Y17 )  ( <= ( + Y17 65 ) Y8 )  )
( or ( <= ( + X9 87 ) X10 )  ( <= ( + X10 26 ) X9 )  ( <= ( + Y9 67 ) Y10 )  ( <= ( + Y10 21 ) Y9 )  )
( or ( <= ( + X9 87 ) X11 )  ( <= ( + X11 15 ) X9 )  ( <= ( + Y9 67 ) Y11 )  ( <= ( + Y11 13 ) Y9 )  )
( or ( <= ( + X9 87 ) X12 )  ( <= ( + X12 33 ) X9 )  ( <= ( + Y9 67 ) Y12 )  ( <= ( + Y12 46 ) Y9 )  )
( or ( <= ( + X9 87 ) X13 )  ( <= ( + X13 29 ) X9 )  ( <= ( + Y9 67 ) Y13 )  ( <= ( + Y13 71 ) Y9 )  )
( or ( <= ( + X9 87 ) X14 )  ( <= ( + X14 18 ) X9 )  ( <= ( + Y9 67 ) Y14 )  ( <= ( + Y14 37 ) Y9 )  )
( or ( <= ( + X9 87 ) X15 )  ( <= ( + X15 59 ) X9 )  ( <= ( + Y9 67 ) Y15 )  ( <= ( + Y15 49 ) Y9 )  )
( or ( <= ( + X9 87 ) X16 )  ( <= ( + X16 30 ) X9 )  ( <= ( + Y9 67 ) Y16 )  ( <= ( + Y16 47 ) Y9 )  )
( or ( <= ( + X9 87 ) X17 )  ( <= ( + X17 15 ) X9 )  ( <= ( + Y9 67 ) Y17 )  ( <= ( + Y17 65 ) Y9 )  )
( or ( <= ( + X10 26 ) X11 )  ( <= ( + X11 15 ) X10 )  ( <= ( + Y10 21 ) Y11 )  ( <= ( + Y11 13 ) Y10 )  )
( or ( <= ( + X10 26 ) X12 )  ( <= ( + X12 33 ) X10 )  ( <= ( + Y10 21 ) Y12 )  ( <= ( + Y12 46 ) Y10 )  )
( or ( <= ( + X10 26 ) X13 )  ( <= ( + X13 29 ) X10 )  ( <= ( + Y10 21 ) Y13 )  ( <= ( + Y13 71 ) Y10 )  )
( or ( <= ( + X10 26 ) X14 )  ( <= ( + X14 18 ) X10 )  ( <= ( + Y10 21 ) Y14 )  ( <= ( + Y14 37 ) Y10 )  )
( or ( <= ( + X10 26 ) X15 )  ( <= ( + X15 59 ) X10 )  ( <= ( + Y10 21 ) Y15 )  ( <= ( + Y15 49 ) Y10 )  )
( or ( <= ( + X10 26 ) X16 )  ( <= ( + X16 30 ) X10 )  ( <= ( + Y10 21 ) Y16 )  ( <= ( + Y16 47 ) Y10 )  )
( or ( <= ( + X10 26 ) X17 )  ( <= ( + X17 15 ) X10 )  ( <= ( + Y10 21 ) Y17 )  ( <= ( + Y17 65 ) Y10 )  )
( or ( <= ( + X11 15 ) X12 )  ( <= ( + X12 33 ) X11 )  ( <= ( + Y11 13 ) Y12 )  ( <= ( + Y12 46 ) Y11 )  )
( or ( <= ( + X11 15 ) X13 )  ( <= ( + X13 29 ) X11 )  ( <= ( + Y11 13 ) Y13 )  ( <= ( + Y13 71 ) Y11 )  )
( or ( <= ( + X11 15 ) X14 )  ( <= ( + X14 18 ) X11 )  ( <= ( + Y11 13 ) Y14 )  ( <= ( + Y14 37 ) Y11 )  )
( or ( <= ( + X11 15 ) X15 )  ( <= ( + X15 59 ) X11 )  ( <= ( + Y11 13 ) Y15 )  ( <= ( + Y15 49 ) Y11 )  )
( or ( <= ( + X11 15 ) X16 )  ( <= ( + X16 30 ) X11 )  ( <= ( + Y11 13 ) Y16 )  ( <= ( + Y16 47 ) Y11 )  )
( or ( <= ( + X11 15 ) X17 )  ( <= ( + X17 15 ) X11 )  ( <= ( + Y11 13 ) Y17 )  ( <= ( + Y17 65 ) Y11 )  )
( or ( <= ( + X12 33 ) X13 )  ( <= ( + X13 29 ) X12 )  ( <= ( + Y12 46 ) Y13 )  ( <= ( + Y13 71 ) Y12 )  )
( or ( <= ( + X12 33 ) X14 )  ( <= ( + X14 18 ) X12 )  ( <= ( + Y12 46 ) Y14 )  ( <= ( + Y14 37 ) Y12 )  )
( or ( <= ( + X12 33 ) X15 )  ( <= ( + X15 59 ) X12 )  ( <= ( + Y12 46 ) Y15 )  ( <= ( + Y15 49 ) Y12 )  )
( or ( <= ( + X12 33 ) X16 )  ( <= ( + X16 30 ) X12 )  ( <= ( + Y12 46 ) Y16 )  ( <= ( + Y16 47 ) Y12 )  )
( or ( <= ( + X12 33 ) X17 )  ( <= ( + X17 15 ) X12 )  ( <= ( + Y12 46 ) Y17 )  ( <= ( + Y17 65 ) Y12 )  )
( or ( <= ( + X13 29 ) X14 )  ( <= ( + X14 18 ) X13 )  ( <= ( + Y13 71 ) Y14 )  ( <= ( + Y14 37 ) Y13 )  )
( or ( <= ( + X13 29 ) X15 )  ( <= ( + X15 59 ) X13 )  ( <= ( + Y13 71 ) Y15 )  ( <= ( + Y15 49 ) Y13 )  )
( or ( <= ( + X13 29 ) X16 )  ( <= ( + X16 30 ) X13 )  ( <= ( + Y13 71 ) Y16 )  ( <= ( + Y16 47 ) Y13 )  )
( or ( <= ( + X13 29 ) X17 )  ( <= ( + X17 15 ) X13 )  ( <= ( + Y13 71 ) Y17 )  ( <= ( + Y17 65 ) Y13 )  )
( or ( <= ( + X14 18 ) X15 )  ( <= ( + X15 59 ) X14 )  ( <= ( + Y14 37 ) Y15 )  ( <= ( + Y15 49 ) Y14 )  )
( or ( <= ( + X14 18 ) X16 )  ( <= ( + X16 30 ) X14 )  ( <= ( + Y14 37 ) Y16 )  ( <= ( + Y16 47 ) Y14 )  )
( or ( <= ( + X14 18 ) X17 )  ( <= ( + X17 15 ) X14 )  ( <= ( + Y14 37 ) Y17 )  ( <= ( + Y17 65 ) Y14 )  )
( or ( <= ( + X15 59 ) X16 )  ( <= ( + X16 30 ) X15 )  ( <= ( + Y15 49 ) Y16 )  ( <= ( + Y16 47 ) Y15 )  )
( or ( <= ( + X15 59 ) X17 )  ( <= ( + X17 15 ) X15 )  ( <= ( + Y15 49 ) Y17 )  ( <= ( + Y17 65 ) Y15 )  )
( or ( <= ( + X16 30 ) X17 )  ( <= ( + X17 15 ) X16 )  ( <= ( + Y16 47 ) Y17 )  ( <= ( + Y17 65 ) Y16 )  )
( >= X0 0)
( <= ( + X0 51) Z)
( >= Y0 0)
( <= ( + Y0 55 ) 212)
( >= X1 0)
( <= ( + X1 25) Z)
( >= Y1 0)
( <= ( + Y1 43 ) 212)
( >= X2 0)
( <= ( + X2 52) Z)
( >= Y2 0)
( <= ( + Y2 15 ) 212)
( >= X3 0)
( <= ( + X3 76) Z)
( >= Y3 0)
( <= ( + Y3 96 ) 212)
( >= X4 0)
( <= ( + X4 29) Z)
( >= Y4 0)
( <= ( + Y4 75 ) 212)
( >= X5 0)
( <= ( + X5 87) Z)
( >= Y5 0)
( <= ( + Y5 50 ) 212)
( >= X6 0)
( <= ( + X6 4) Z)
( >= Y6 0)
( <= ( + Y6 64 ) 212)
( >= X7 0)
( <= ( + X7 94) Z)
( >= Y7 0)
( <= ( + Y7 70 ) 212)
( >= X8 0)
( <= ( + X8 80) Z)
( >= Y8 0)
( <= ( + Y8 93 ) 212)
( >= X9 0)
( <= ( + X9 87) Z)
( >= Y9 0)
( <= ( + Y9 67 ) 212)
( >= X10 0)
( <= ( + X10 26) Z)
( >= Y10 0)
( <= ( + Y10 21 ) 212)
( >= X11 0)
( <= ( + X11 15) Z)
( >= Y11 0)
( <= ( + Y11 13 ) 212)
( >= X12 0)
( <= ( + X12 33) Z)
( >= Y12 0)
( <= ( + Y12 46 ) 212)
( >= X13 0)
( <= ( + X13 29) Z)
( >= Y13 0)
( <= ( + Y13 71 ) 212)
( >= X14 0)
( <= ( + X14 18) Z)
( >= Y14 0)
( <= ( + Y14 37 ) 212)
( >= X15 0)
( <= ( + X15 59) Z)
( >= Y15 0)
( <= ( + Y15 49 ) 212)
( >= X16 0)
( <= ( + X16 30) Z)
( >= Y16 0)
( <= ( + Y16 47 ) 212)
( >= X17 0)
( <= ( + X17 15) Z)
( >= Y17 0)
( <= ( + Y17 65 ) 212)
) )
)(=> $phi $goal))))